50

91 7 273
88 26 292
88 41 268
87 20 297
87 4 270
86 23 261
86 42 282
85 8 289
85 2 279
84 1 278
83 28 250
80 26 251
79 9 291
78 3 285
77 11 241
70 33 241
70 34 277
68 18 245
67 27 281
66 9 266
59 28 205
52 7 248
49 21 232
48 17 280
47 12 293
47 7 219
44 16 227
42 13 224
38 8 191
37 12 294
37 15 277
34 17 257
34 15 238
33 14 299
31 10 127
29 1 290
27 10 90
24 10 127
21 9 283
17 3 159
16 8 81
16 8 296
15 3 143
14 7 286
8 1 253
6 2 88
5 3 178
4 1 65
2 1 132
2 1 251
